# Solution for model r5_t18_m8_9
# Finished Task: 14 / 18
# Makespan: 693.0, Total Distance: 303.0, Total Time: 5.3613
# R O S F
0 0 15 212.0 212.0
1 1 17 115.0 115.0
2 2 10 173.0 173.0
3 3 18 125.0 125.0
4 4 21 173.0 173.0
5 -1 -1 584.0 619.0
6 3 -1 429.0 453.0
7 -1 -1 657.0 693.0
8 1 22 444.0 465.0
9 1 -1 545.0 584.0
10 2 12 352.0 378.0
11 0 20 374.0 394.0
12 2 -1 453.0 486.0
13 4 19 510.0 542.0
14 -1 -1 542.0 563.0
15 0 11 214.0 244.0
16 -1 -1 619.0 657.0
17 1 8 378.0 411.0
18 3 6 340.0 374.0
19 4 -1 668.0 693.0
20 0 -1 486.0 510.0
21 4 13 406.0 444.0
22 1 9 486.0 513.0
